Maximize
  18 x0_0_ + 18 x0_1_ + 18 x0_2_ + 18 x0_3_ + 18 x0_4_ + 4 x0_5_ + 4 x0_6_
   + 18 x0_7_ + 18 x0_8_ + 18 x0_9_ + 288 x1_5_ + 288 x1_6_ + 34 x2_5_
   + 34 x2_6_ + 18 x3_0_ + 18 x3_1_ + 18 x3_2_ + 18 x3_3_ + 18 x3_4_
   + 4 x3_5_ + 4 x3_6_ + 18 x3_7_ + 18 x3_8_ + 18 x3_9_ + 45 x4_0_
   + 45 x4_1_ + 45 x4_2_ + 45 x4_3_ + 45 x4_4_ + 10 x4_5_ + 10 x4_6_
   + 45 x4_7_ + 45 x4_8_ + 45 x4_9_ + 51 x5_5_ + 51 x5_6_ + 72 x6_5_
   + 72 x6_6_ + 17 x7_5_ + 17 x7_6_ + 72 x8_5_ + 72 x8_6_ + 34 x9_5_
   + 34 x9_6_ + 360 x10_5_ + 360 x10_6_ + 27 x11_0_ + 27 x11_1_ + 27 x11_2_
   + 27 x11_3_ + 27 x11_4_ + 6 x11_5_ + 6 x11_6_ + 27 x11_7_ + 27 x11_8_
   + 27 x11_9_ + 51 x12_5_ + 51 x12_6_ + 9 x13_0_ + 9 x13_1_ + 9 x13_2_
   + 9 x13_3_ + 9 x13_4_ + 2 x13_5_ + 2 x13_6_ + 9 x13_7_ + 9 x13_8_
   + 9 x13_9_ + 576 x14_5_ + 576 x14_6_ + 27 x15_0_ + 27 x15_1_ + 27 x15_2_
   + 27 x15_3_ + 27 x15_4_ + 6 x15_5_ + 6 x15_6_ + 27 x15_7_ + 27 x15_8_
   + 27 x15_9_ + 36 x16_0_ + 36 x16_1_ + 36 x16_2_ + 36 x16_3_ + 36 x16_4_
   + 8 x16_5_ + 8 x16_6_ + 36 x16_7_ + 36 x16_8_ + 36 x16_9_ + 18 x17_0_
   + 18 x17_1_ + 18 x17_2_ + 18 x17_3_ + 18 x17_4_ + 4 x17_5_ + 4 x17_6_
   + 18 x17_7_ + 18 x17_8_ + 18 x17_9_ + 72 x18_5_ + 72 x18_6_ + 9 x19_0_
   + 9 x19_1_ + 9 x19_2_ + 9 x19_3_ + 9 x19_4_ + 2 x19_5_ + 2 x19_6_
   + 9 x19_7_ + 9 x19_8_ + 9 x19_9_
Subject To
 R0: x0_0_ + x0_1_ + x0_2_ + x0_3_ + x0_4_ + x0_5_ + x0_6_ + x0_7_ + x0_8_
   + x0_9_ + x0_n_ = 1
 R1: x1_5_ + x1_6_ + x1_n_ = 1
 R2: x2_5_ + x2_6_ + x2_n_ = 1
 R3: x3_0_ + x3_1_ + x3_2_ + x3_3_ + x3_4_ + x3_5_ + x3_6_ + x3_7_ + x3_8_
   + x3_9_ + x3_n_ = 1
 R4: x4_0_ + x4_1_ + x4_2_ + x4_3_ + x4_4_ + x4_5_ + x4_6_ + x4_7_ + x4_8_
   + x4_9_ + x4_n_ = 1
 R5: x5_5_ + x5_6_ + x5_n_ = 1
 R6: x6_5_ + x6_6_ + x6_n_ = 1
 R7: x7_5_ + x7_6_ + x7_n_ = 1
 R8: x8_5_ + x8_6_ + x8_n_ = 1
 R9: x9_5_ + x9_6_ + x9_n_ = 1
 R10: x10_5_ + x10_6_ + x10_n_ = 1
 R11: x11_0_ + x11_1_ + x11_2_ + x11_3_ + x11_4_ + x11_5_ + x11_6_ + x11_7_
   + x11_8_ + x11_9_ + x11_n_ = 1
 R12: x12_5_ + x12_6_ + x12_n_ = 1
 R13: x13_0_ + x13_1_ + x13_2_ + x13_3_ + x13_4_ + x13_5_ + x13_6_ + x13_7_
   + x13_8_ + x13_9_ + x13_n_ = 1
 R14: x14_5_ + x14_6_ + x14_n_ = 1
 R15: x15_0_ + x15_1_ + x15_2_ + x15_3_ + x15_4_ + x15_5_ + x15_6_ + x15_7_
   + x15_8_ + x15_9_ + x15_n_ = 1
 R16: x16_0_ + x16_1_ + x16_2_ + x16_3_ + x16_4_ + x16_5_ + x16_6_ + x16_7_
   + x16_8_ + x16_9_ + x16_n_ = 1
 R17: x17_0_ + x17_1_ + x17_2_ + x17_3_ + x17_4_ + x17_5_ + x17_6_ + x17_7_
   + x17_8_ + x17_9_ + x17_n_ = 1
 R18: x18_5_ + x18_6_ + x18_n_ = 1
 R19: x19_0_ + x19_1_ + x19_2_ + x19_3_ + x19_4_ + x19_5_ + x19_6_ + x19_7_
   + x19_8_ + x19_9_ + x19_n_ = 1
 R20: x0_0_ + x11_0_ <= 1
 R21: x0_1_ + x11_1_ <= 1
 R22: x0_2_ + x11_2_ <= 1
 R23: x0_3_ + x11_3_ <= 1
 R24: x0_4_ + x11_4_ <= 1
 R25: x0_5_ + x11_5_ <= 1
 R26: x0_6_ + x11_6_ <= 1
 R27: x0_7_ + x11_7_ <= 1
 R28: x0_8_ + x11_8_ <= 1
 R29: x0_9_ + x11_9_ <= 1
 R30: x0_0_ + x16_0_ <= 1
 R31: x0_1_ + x16_1_ <= 1
 R32: x0_2_ + x16_2_ <= 1
 R33: x0_3_ + x16_3_ <= 1
 R34: x0_4_ + x16_4_ <= 1
 R35: x0_5_ + x16_5_ <= 1
 R36: x0_6_ + x16_6_ <= 1
 R37: x0_7_ + x16_7_ <= 1
 R38: x0_8_ + x16_8_ <= 1
 R39: x0_9_ + x16_9_ <= 1
 R40: x0_5_ + x1_5_ <= 1
 R41: x0_6_ + x1_6_ <= 1
 R42: x1_5_ + x10_5_ <= 1
 R43: x1_6_ + x10_6_ <= 1
 R44: x1_5_ + x11_5_ <= 1
 R45: x1_6_ + x11_6_ <= 1
 R46: x1_5_ + x14_5_ <= 1
 R47: x1_6_ + x14_6_ <= 1
 R48: x1_5_ + x16_5_ <= 1
 R49: x1_6_ + x16_6_ <= 1
 R50: x2_5_ + x3_5_ <= 1
 R51: x2_6_ + x3_6_ <= 1
 R52: x2_5_ + x4_5_ <= 1
 R53: x2_6_ + x4_6_ <= 1
 R54: x2_5_ + x8_5_ <= 1
 R55: x2_6_ + x8_6_ <= 1
 R56: x2_5_ + x9_5_ <= 1
 R57: x2_6_ + x9_6_ <= 1
 R58: x2_5_ + x12_5_ <= 1
 R59: x2_6_ + x12_6_ <= 1
 R60: x2_5_ + x14_5_ <= 1
 R61: x2_6_ + x14_6_ <= 1
 R62: x2_5_ + x17_5_ <= 1
 R63: x2_6_ + x17_6_ <= 1
 R64: x3_0_ + x4_0_ <= 1
 R65: x3_1_ + x4_1_ <= 1
 R66: x3_2_ + x4_2_ <= 1
 R67: x3_3_ + x4_3_ <= 1
 R68: x3_4_ + x4_4_ <= 1
 R69: x3_5_ + x4_5_ <= 1
 R70: x3_6_ + x4_6_ <= 1
 R71: x3_7_ + x4_7_ <= 1
 R72: x3_8_ + x4_8_ <= 1
 R73: x3_9_ + x4_9_ <= 1
 R74: x3_0_ + x17_0_ <= 1
 R75: x3_1_ + x17_1_ <= 1
 R76: x3_2_ + x17_2_ <= 1
 R77: x3_3_ + x17_3_ <= 1
 R78: x3_4_ + x17_4_ <= 1
 R79: x3_5_ + x17_5_ <= 1
 R80: x3_6_ + x17_6_ <= 1
 R81: x3_7_ + x17_7_ <= 1
 R82: x3_8_ + x17_8_ <= 1
 R83: x3_9_ + x17_9_ <= 1
 R84: x3_0_ + x4_0_ <= 1
 R85: x3_1_ + x4_1_ <= 1
 R86: x3_2_ + x4_2_ <= 1
 R87: x3_3_ + x4_3_ <= 1
 R88: x3_4_ + x4_4_ <= 1
 R89: x3_5_ + x4_5_ <= 1
 R90: x3_6_ + x4_6_ <= 1
 R91: x3_7_ + x4_7_ <= 1
 R92: x3_8_ + x4_8_ <= 1
 R93: x3_9_ + x4_9_ <= 1
 R94: x4_0_ + x15_0_ <= 1
 R95: x4_1_ + x15_1_ <= 1
 R96: x4_2_ + x15_2_ <= 1
 R97: x4_3_ + x15_3_ <= 1
 R98: x4_4_ + x15_4_ <= 1
 R99: x4_5_ + x15_5_ <= 1
 R100: x4_6_ + x15_6_ <= 1
 R101: x4_7_ + x15_7_ <= 1
 R102: x4_8_ + x15_8_ <= 1
 R103: x4_9_ + x15_9_ <= 1
 R104: x4_0_ + x17_0_ <= 1
 R105: x4_1_ + x17_1_ <= 1
 R106: x4_2_ + x17_2_ <= 1
 R107: x4_3_ + x17_3_ <= 1
 R108: x4_4_ + x17_4_ <= 1
 R109: x4_5_ + x17_5_ <= 1
 R110: x4_6_ + x17_6_ <= 1
 R111: x4_7_ + x17_7_ <= 1
 R112: x4_8_ + x17_8_ <= 1
 R113: x4_9_ + x17_9_ <= 1
 R114: x4_0_ + x19_0_ <= 1
 R115: x4_1_ + x19_1_ <= 1
 R116: x4_2_ + x19_2_ <= 1
 R117: x4_3_ + x19_3_ <= 1
 R118: x4_4_ + x19_4_ <= 1
 R119: x4_5_ + x19_5_ <= 1
 R120: x4_6_ + x19_6_ <= 1
 R121: x4_7_ + x19_7_ <= 1
 R122: x4_8_ + x19_8_ <= 1
 R123: x4_9_ + x19_9_ <= 1
 R124: x0_5_ + x5_5_ <= 1
 R125: x0_6_ + x5_6_ <= 1
 R126: x1_5_ + x5_5_ <= 1
 R127: x1_6_ + x5_6_ <= 1
 R128: x5_5_ + x10_5_ <= 1
 R129: x5_6_ + x10_6_ <= 1
 R130: x5_5_ + x11_5_ <= 1
 R131: x5_6_ + x11_6_ <= 1
 R132: x5_5_ + x12_5_ <= 1
 R133: x5_6_ + x12_6_ <= 1
 R134: x5_5_ + x14_5_ <= 1
 R135: x5_6_ + x14_6_ <= 1
 R136: x5_5_ + x16_5_ <= 1
 R137: x5_6_ + x16_6_ <= 1
 R138: x6_5_ + x13_5_ <= 1
 R139: x6_6_ + x13_6_ <= 1
 R140: x6_5_ + x15_5_ <= 1
 R141: x6_6_ + x15_6_ <= 1
 R142: x3_5_ + x8_5_ <= 1
 R143: x3_6_ + x8_6_ <= 1
 R144: x4_5_ + x8_5_ <= 1
 R145: x4_6_ + x8_6_ <= 1
 R146: x8_5_ + x14_5_ <= 1
 R147: x8_6_ + x14_6_ <= 1
 R148: x8_5_ + x17_5_ <= 1
 R149: x8_6_ + x17_6_ <= 1
 R150: x2_5_ + x9_5_ <= 1
 R151: x2_6_ + x9_6_ <= 1
 R152: x3_5_ + x9_5_ <= 1
 R153: x3_6_ + x9_6_ <= 1
 R154: x4_5_ + x9_5_ <= 1
 R155: x4_6_ + x9_6_ <= 1
 R156: x8_5_ + x9_5_ <= 1
 R157: x8_6_ + x9_6_ <= 1
 R158: x9_5_ + x12_5_ <= 1
 R159: x9_6_ + x12_6_ <= 1
 R160: x9_5_ + x14_5_ <= 1
 R161: x9_6_ + x14_6_ <= 1
 R162: x9_5_ + x17_5_ <= 1
 R163: x9_6_ + x17_6_ <= 1
 R164: x0_5_ + x10_5_ <= 1
 R165: x0_6_ + x10_6_ <= 1
 R166: x1_5_ + x10_5_ <= 1
 R167: x1_6_ + x10_6_ <= 1
 R168: x10_5_ + x11_5_ <= 1
 R169: x10_6_ + x11_6_ <= 1
 R170: x10_5_ + x14_5_ <= 1
 R171: x10_6_ + x14_6_ <= 1
 R172: x10_5_ + x16_5_ <= 1
 R173: x10_6_ + x16_6_ <= 1
 R174: x0_0_ + x11_0_ <= 1
 R175: x0_1_ + x11_1_ <= 1
 R176: x0_2_ + x11_2_ <= 1
 R177: x0_3_ + x11_3_ <= 1
 R178: x0_4_ + x11_4_ <= 1
 R179: x0_5_ + x11_5_ <= 1
 R180: x0_6_ + x11_6_ <= 1
 R181: x0_7_ + x11_7_ <= 1
 R182: x0_8_ + x11_8_ <= 1
 R183: x0_9_ + x11_9_ <= 1
 R184: x11_0_ + x16_0_ <= 1
 R185: x11_1_ + x16_1_ <= 1
 R186: x11_2_ + x16_2_ <= 1
 R187: x11_3_ + x16_3_ <= 1
 R188: x11_4_ + x16_4_ <= 1
 R189: x11_5_ + x16_5_ <= 1
 R190: x11_6_ + x16_6_ <= 1
 R191: x11_7_ + x16_7_ <= 1
 R192: x11_8_ + x16_8_ <= 1
 R193: x11_9_ + x16_9_ <= 1
 R194: x2_5_ + x12_5_ <= 1
 R195: x2_6_ + x12_6_ <= 1
 R196: x3_5_ + x12_5_ <= 1
 R197: x3_6_ + x12_6_ <= 1
 R198: x4_5_ + x12_5_ <= 1
 R199: x4_6_ + x12_6_ <= 1
 R200: x5_5_ + x12_5_ <= 1
 R201: x5_6_ + x12_6_ <= 1
 R202: x8_5_ + x12_5_ <= 1
 R203: x8_6_ + x12_6_ <= 1
 R204: x9_5_ + x12_5_ <= 1
 R205: x9_6_ + x12_6_ <= 1
 R206: x10_5_ + x12_5_ <= 1
 R207: x10_6_ + x12_6_ <= 1
 R208: x11_5_ + x12_5_ <= 1
 R209: x11_6_ + x12_6_ <= 1
 R210: x12_5_ + x14_5_ <= 1
 R211: x12_6_ + x14_6_ <= 1
 R212: x12_5_ + x16_5_ <= 1
 R213: x12_6_ + x16_6_ <= 1
 R214: x12_5_ + x17_5_ <= 1
 R215: x12_6_ + x17_6_ <= 1
 R216: x12_5_ + x18_5_ <= 1
 R217: x12_6_ + x18_6_ <= 1
 R218: x13_0_ + x15_0_ <= 1
 R219: x13_1_ + x15_1_ <= 1
 R220: x13_2_ + x15_2_ <= 1
 R221: x13_3_ + x15_3_ <= 1
 R222: x13_4_ + x15_4_ <= 1
 R223: x13_5_ + x15_5_ <= 1
 R224: x13_6_ + x15_6_ <= 1
 R225: x13_7_ + x15_7_ <= 1
 R226: x13_8_ + x15_8_ <= 1
 R227: x13_9_ + x15_9_ <= 1
 R228: x0_5_ + x14_5_ <= 1
 R229: x0_6_ + x14_6_ <= 1
 R230: x1_5_ + x14_5_ <= 1
 R231: x1_6_ + x14_6_ <= 1
 R232: x3_5_ + x14_5_ <= 1
 R233: x3_6_ + x14_6_ <= 1
 R234: x4_5_ + x14_5_ <= 1
 R235: x4_6_ + x14_6_ <= 1
 R236: x8_5_ + x14_5_ <= 1
 R237: x8_6_ + x14_6_ <= 1
 R238: x10_5_ + x14_5_ <= 1
 R239: x10_6_ + x14_6_ <= 1
 R240: x11_5_ + x14_5_ <= 1
 R241: x11_6_ + x14_6_ <= 1
 R242: x14_5_ + x16_5_ <= 1
 R243: x14_6_ + x16_6_ <= 1
 R244: x14_5_ + x17_5_ <= 1
 R245: x14_6_ + x17_6_ <= 1
 R246: x14_5_ + x18_5_ <= 1
 R247: x14_6_ + x18_6_ <= 1
 R248: x4_0_ + x15_0_ <= 1
 R249: x4_1_ + x15_1_ <= 1
 R250: x4_2_ + x15_2_ <= 1
 R251: x4_3_ + x15_3_ <= 1
 R252: x4_4_ + x15_4_ <= 1
 R253: x4_5_ + x15_5_ <= 1
 R254: x4_6_ + x15_6_ <= 1
 R255: x4_7_ + x15_7_ <= 1
 R256: x4_8_ + x15_8_ <= 1
 R257: x4_9_ + x15_9_ <= 1
 R258: x13_0_ + x15_0_ <= 1
 R259: x13_1_ + x15_1_ <= 1
 R260: x13_2_ + x15_2_ <= 1
 R261: x13_3_ + x15_3_ <= 1
 R262: x13_4_ + x15_4_ <= 1
 R263: x13_5_ + x15_5_ <= 1
 R264: x13_6_ + x15_6_ <= 1
 R265: x13_7_ + x15_7_ <= 1
 R266: x13_8_ + x15_8_ <= 1
 R267: x13_9_ + x15_9_ <= 1
 R268: x15_0_ + x19_0_ <= 1
 R269: x15_1_ + x19_1_ <= 1
 R270: x15_2_ + x19_2_ <= 1
 R271: x15_3_ + x19_3_ <= 1
 R272: x15_4_ + x19_4_ <= 1
 R273: x15_5_ + x19_5_ <= 1
 R274: x15_6_ + x19_6_ <= 1
 R275: x15_7_ + x19_7_ <= 1
 R276: x15_8_ + x19_8_ <= 1
 R277: x15_9_ + x19_9_ <= 1
 R278: x0_0_ + x16_0_ <= 1
 R279: x0_1_ + x16_1_ <= 1
 R280: x0_2_ + x16_2_ <= 1
 R281: x0_3_ + x16_3_ <= 1
 R282: x0_4_ + x16_4_ <= 1
 R283: x0_5_ + x16_5_ <= 1
 R284: x0_6_ + x16_6_ <= 1
 R285: x0_7_ + x16_7_ <= 1
 R286: x0_8_ + x16_8_ <= 1
 R287: x0_9_ + x16_9_ <= 1
 R288: x11_0_ + x16_0_ <= 1
 R289: x11_1_ + x16_1_ <= 1
 R290: x11_2_ + x16_2_ <= 1
 R291: x11_3_ + x16_3_ <= 1
 R292: x11_4_ + x16_4_ <= 1
 R293: x11_5_ + x16_5_ <= 1
 R294: x11_6_ + x16_6_ <= 1
 R295: x11_7_ + x16_7_ <= 1
 R296: x11_8_ + x16_8_ <= 1
 R297: x11_9_ + x16_9_ <= 1
 R298: x3_0_ + x17_0_ <= 1
 R299: x3_1_ + x17_1_ <= 1
 R300: x3_2_ + x17_2_ <= 1
 R301: x3_3_ + x17_3_ <= 1
 R302: x3_4_ + x17_4_ <= 1
 R303: x3_5_ + x17_5_ <= 1
 R304: x3_6_ + x17_6_ <= 1
 R305: x3_7_ + x17_7_ <= 1
 R306: x3_8_ + x17_8_ <= 1
 R307: x3_9_ + x17_9_ <= 1
 R308: x4_0_ + x17_0_ <= 1
 R309: x4_1_ + x17_1_ <= 1
 R310: x4_2_ + x17_2_ <= 1
 R311: x4_3_ + x17_3_ <= 1
 R312: x4_4_ + x17_4_ <= 1
 R313: x4_5_ + x17_5_ <= 1
 R314: x4_6_ + x17_6_ <= 1
 R315: x4_7_ + x17_7_ <= 1
 R316: x4_8_ + x17_8_ <= 1
 R317: x4_9_ + x17_9_ <= 1
 R318: x3_5_ + x18_5_ <= 1
 R319: x3_6_ + x18_6_ <= 1
 R320: x4_5_ + x18_5_ <= 1
 R321: x4_6_ + x18_6_ <= 1
 R322: x14_5_ + x18_5_ <= 1
 R323: x14_6_ + x18_6_ <= 1
 R324: x17_5_ + x18_5_ <= 1
 R325: x17_6_ + x18_6_ <= 1
 R326: x4_0_ + x19_0_ <= 1
 R327: x4_1_ + x19_1_ <= 1
 R328: x4_2_ + x19_2_ <= 1
 R329: x4_3_ + x19_3_ <= 1
 R330: x4_4_ + x19_4_ <= 1
 R331: x4_5_ + x19_5_ <= 1
 R332: x4_6_ + x19_6_ <= 1
 R333: x4_7_ + x19_7_ <= 1
 R334: x4_8_ + x19_8_ <= 1
 R335: x4_9_ + x19_9_ <= 1
 R336: x15_0_ + x19_0_ <= 1
 R337: x15_1_ + x19_1_ <= 1
 R338: x15_2_ + x19_2_ <= 1
 R339: x15_3_ + x19_3_ <= 1
 R340: x15_4_ + x19_4_ <= 1
 R341: x15_5_ + x19_5_ <= 1
 R342: x15_6_ + x19_6_ <= 1
 R343: x15_7_ + x19_7_ <= 1
 R344: x15_8_ + x19_8_ <= 1
 R345: x15_9_ + x19_9_ <= 1
 R346: <= 1
Bounds
Binaries
 x0_0_ x0_1_ x0_2_ x0_3_ x0_4_ x0_5_ x0_6_ x0_7_ x0_8_ x0_9_ x0_n_ x1_5_
 x1_6_ x1_n_ x2_5_ x2_6_ x2_n_ x3_0_ x3_1_ x3_2_ x3_3_ x3_4_ x3_5_ x3_6_
 x3_7_ x3_8_ x3_9_ x3_n_ x4_0_ x4_1_ x4_2_ x4_3_ x4_4_ x4_5_ x4_6_ x4_7_
 x4_8_ x4_9_ x4_n_ x5_5_ x5_6_ x5_n_ x6_5_ x6_6_ x6_n_ x7_5_ x7_6_ x7_n_
 x8_5_ x8_6_ x8_n_ x9_5_ x9_6_ x9_n_ x10_5_ x10_6_ x10_n_ x11_0_ x11_1_
 x11_2_ x11_3_ x11_4_ x11_5_ x11_6_ x11_7_ x11_8_ x11_9_ x11_n_ x12_5_
 x12_6_ x12_n_ x13_0_ x13_1_ x13_2_ x13_3_ x13_4_ x13_5_ x13_6_ x13_7_
 x13_8_ x13_9_ x13_n_ x14_5_ x14_6_ x14_n_ x15_0_ x15_1_ x15_2_ x15_3_
 x15_4_ x15_5_ x15_6_ x15_7_ x15_8_ x15_9_ x15_n_ x16_0_ x16_1_ x16_2_
 x16_3_ x16_4_ x16_5_ x16_6_ x16_7_ x16_8_ x16_9_ x16_n_ x17_0_ x17_1_
 x17_2_ x17_3_ x17_4_ x17_5_ x17_6_ x17_7_ x17_8_ x17_9_ x17_n_ x18_5_
 x18_6_ x18_n_ x19_0_ x19_1_ x19_2_ x19_3_ x19_4_ x19_5_ x19_6_ x19_7_
 x19_8_ x19_9_ x19_n_
End
